presolving:
(round 1, fast)       427 del vars, 885 del conss, 0 add conss, 668 chg bounds, 0 chg sides, 0 chg coeffs, 0 upgd conss, 0 impls, 4500 clqs
(round 2, fast)       1057 del vars, 885 del conss, 0 add conss, 668 chg bounds, 0 chg sides, 0 chg coeffs, 0 upgd conss, 0 impls, 4500 clqs
   (0.5s) running MILP presolver
   (0.5s) MILP presolver found nothing
(round 3, exhaustive) 1057 del vars, 885 del conss, 0 add conss, 668 chg bounds, 0 chg sides, 0 chg coeffs, 5642 upgd conss, 0 impls, 4500 clqs
   (1.2s) probing: 51/4710 (1.1%) - 0 fixings, 0 aggregations, 0 implications, 0 bound changes
   (1.2s) probing aborted: 50/50 successive totally useless probings
   (1.4s) symmetry computation started: requiring (bin +, int -, cont +), (fixed: bin -, int +, cont -)
   (1.5s) no symmetry present
presolving (4 rounds: 4 fast, 2 medium, 2 exhaustive):
 26404 deleted vars, 1093 deleted constraints, 0 added constraints, 668 tightened bounds, 0 added holes, 0 changed sides, 0 changed coefficients
 0 implications, 4500 cliques
presolved problem has 4710 variables (4710 bin, 0 int, 0 impl, 0 cont) and 5702 constraints
     17 constraints of type <knapsack>
   4500 constraints of type <setppc>
     60 constraints of type <linear>
   1125 constraints of type <logicor>
transformed objective value is always integral (scale: 0.2)
Presolving Time: 3.37

 time | node  | left  |LP iter|LP it/n|mem/heur|mdpt |vars |cons |rows |cuts |sepa|confs|strbr|  dualbound   | primalbound  |  gap   | compl. 
p 3.6s|     1 |     0 |     0 |     - |  clique|   0 |4710 |5702 |5702 |   0 |  0 |   0 |   0 |-1.796057e+06 |-1.792998e+06 |   0.17%| unknown
p 3.6s|     1 |     0 |     0 |     - |   locks|   0 |4710 |5702 |5702 |   0 |  0 |   0 |   0 |-1.796057e+06 |-1.793392e+06 |   0.15%| unknown
  4.1s|     1 |     0 |   905 |     - |   282M |   0 |4710 |5734 |5702 |   0 |  0 |  32 |   0 |-1.795903e+06 |-1.793392e+06 |   0.14%| unknown
  4.8s|     1 |     0 |   954 |     - |   284M |   0 |4710 |5734 |5703 |   1 |  1 |  32 |   0 |-1.795899e+06 |-1.793392e+06 |   0.14%| unknown
  5.1s|     1 |     0 |   992 |     - |   286M |   0 |4710 |5735 |5704 |   2 |  2 |  33 |   0 |-1.795899e+06 |-1.793392e+06 |   0.14%| unknown
  5.5s|     1 |     0 |  1020 |     - |   289M |   0 |4710 |5736 |5705 |   3 |  3 |  34 |   0 |-1.795897e+06 |-1.793392e+06 |   0.14%| unknown
  5.8s|     1 |     0 |  1047 |     - |   294M |   0 |4710 |5736 |5706 |   4 |  4 |  34 |   0 |-1.795896e+06 |-1.793392e+06 |   0.14%| unknown
  6.1s|     1 |     0 |  1094 |     - |   296M |   0 |4710 |5736 |5707 |   5 |  5 |  34 |   0 |-1.795896e+06 |-1.793392e+06 |   0.14%| unknown
  6.5s|     1 |     0 |  1182 |     - |   300M |   0 |4710 |5736 |5708 |   6 |  6 |  34 |   0 |-1.795895e+06 |-1.793392e+06 |   0.14%| unknown
  6.9s|     1 |     0 |  1239 |     - |   304M |   0 |4710 |5737 |5709 |   7 |  7 |  35 |   0 |-1.795894e+06 |-1.793392e+06 |   0.14%| unknown
  7.3s|     1 |     0 |  1286 |     - |   312M |   0 |4710 |5737 |5710 |   8 |  8 |  35 |   0 |-1.795893e+06 |-1.793392e+06 |   0.14%| unknown
  7.6s|     1 |     0 |  1328 |     - |   317M |   0 |4710 |5738 |5711 |   9 |  9 |  36 |   0 |-1.795892e+06 |-1.793392e+06 |   0.14%| unknown
  8.2s|     1 |     0 |  1366 |     - |   318M |   0 |4710 |5739 |5712 |  10 | 10 |  37 |   0 |-1.795892e+06 |-1.793392e+06 |   0.14%| unknown
  8.4s|     1 |     0 |  1431 |     - |   319M |   0 |4710 |5739 |5713 |  11 | 11 |  37 |   0 |-1.795891e+06 |-1.793392e+06 |   0.14%| unknown
  8.6s|     1 |     0 |  1498 |     - |   319M |   0 |4710 |5740 |5714 |  12 | 12 |  38 |   0 |-1.795891e+06 |-1.793392e+06 |   0.14%| unknown
 time | node  | left  |LP iter|LP it/n|mem/heur|mdpt |vars |cons |rows |cuts |sepa|confs|strbr|  dualbound   | primalbound  |  gap   | compl. 
  8.8s|     1 |     0 |  1532 |     - |   320M |   0 |4710 |5741 |5715 |  13 | 13 |  39 |   0 |-1.795891e+06 |-1.793392e+06 |   0.14%| unknown
  9.0s|     1 |     0 |  1567 |     - |   321M |   0 |4710 |5740 |5716 |  14 | 14 |  39 |   0 |-1.795891e+06 |-1.793392e+06 |   0.14%| unknown
  9.2s|     1 |     0 |  1711 |     - |   321M |   0 |4710 |5741 |5717 |  15 | 15 |  40 |   0 |-1.795890e+06 |-1.793392e+06 |   0.14%| unknown
  9.4s|     1 |     0 |  1819 |     - |   322M |   0 |4710 |5741 |5718 |  16 | 16 |  40 |   0 |-1.795890e+06 |-1.793392e+06 |   0.14%| unknown
  9.5s|     1 |     0 |  1845 |     - |   322M |   0 |4710 |5742 |5718 |  17 | 17 |  41 |   0 |-1.795890e+06 |-1.793392e+06 |   0.14%| unknown
  9.7s|     1 |     0 |  1889 |     - |   322M |   0 |4710 |5743 |5719 |  18 | 18 |  42 |   0 |-1.795890e+06 |-1.793392e+06 |   0.14%| unknown
d16.8s|     1 |     0 |  8933 |     - |farkasdi|   0 |4710 |5743 |5719 |   0 | 20 |  42 |   0 |-1.795890e+06 |-1.795194e+06 |   0.04%| unknown
o21.3s|     1 |     0 | 21568 |     - |feaspump|   0 |4710 |5743 |5719 |  18 | 20 |  42 |   0 |-1.795890e+06 |-1.795576e+06 |   0.02%| unknown
L24.3s|     1 |     0 | 21930 |     - |    rens|   0 |4710 |5753 |5719 |  18 | 20 |  52 |   0 |-1.795890e+06 |-1.795743e+06 |   0.01%| unknown
 24.3s|     1 |     0 | 21930 |     - |   325M |   0 |4710 |3770 |5719 |  18 | 20 |  52 |   0 |-1.795890e+06 |-1.795743e+06 |   0.01%| unknown
 24.4s|     1 |     0 | 21930 |     - |   325M |   0 |4710 |3770 |3157 |  18 | 20 |  52 |   0 |-1.795890e+06 |-1.795743e+06 |   0.01%| unknown
 24.5s|     1 |     0 | 21944 |     - |   325M |   0 |4710 |3191 |3158 |  19 | 21 |  52 |   0 |-1.795889e+06 |-1.795743e+06 |   0.01%| unknown
 27.7s|     1 |     2 | 21945 |     - |   325M |   0 |4710 |3191 |3158 |  19 | 22 |  52 |  21 |-1.795883e+06 |-1.795743e+06 |   0.01%| unknown
(run 1, node 1) restarting after 118 global fixings of integer variables

(restart) converted 18 cuts from the global cut pool into linear constraints

presolving:
(round 1, fast)       118 del vars, 0 del conss, 0 add conss, 0 chg bounds, 0 chg sides, 60792 chg coeffs, 0 upgd conss, 0 impls, 1938 clqs
   (27.8s) running MILP presolver
   (27.8s) MILP presolver found nothing
(round 2, exhaustive) 118 del vars, 0 del conss, 0 add conss, 0 chg bounds, 0 chg sides, 60792 chg coeffs, 15 upgd conss, 0 impls, 1938 clqs
(round 3, exhaustive) 118 del vars, 6 del conss, 0 add conss, 0 chg bounds, 0 chg sides, 60792 chg coeffs, 15 upgd conss, 0 impls, 1938 clqs
presolving (4 rounds: 4 fast, 3 medium, 3 exhaustive):
 118 deleted vars, 6 deleted constraints, 0 added constraints, 0 tightened bounds, 0 added holes, 0 changed sides, 60792 changed coefficients
 0 implications, 1938 cliques
presolved problem has 4592 variables (4592 bin, 0 int, 0 impl, 0 cont) and 3203 constraints
     32 constraints of type <knapsack>
   1938 constraints of type <setppc>
     63 constraints of type <linear>
   1170 constraints of type <logicor>
transformed objective value is always integral (scale: 0.2)
Presolving Time: 3.57
transformed 1/5 original solutions to the transformed problem space

 time | node  | left  |LP iter|LP it/n|mem/heur|mdpt |vars |cons |rows |cuts |sepa|confs|strbr|  dualbound   | primalbound  |  gap   | compl. 
 28.3s|     1 |     0 | 24283 |     - |   318M |   0 |4592 |3203 |3158 |   0 |  0 |  52 |  21 |-1.795883e+06 |-1.795743e+06*|   0.01%| unknown
 33.4s|     1 |     2 | 24491 |     - |   319M |   0 |4592 |3207 |3158 |   0 |  2 |  56 |  40 |-1.795883e+06 |-1.795743e+06*|   0.01%| unknown
 68.6s|   100 |    23 | 42387 | 381.5 |   322M |  17 |4592 |3339 |3160 |  26 |  0 | 188 | 295 |-1.795864e+06 |-1.795743e+06*|   0.01%|  20.88%
 79.3s|   200 |    23 | 55261 | 255.1 |   331M |  17 |4592 |3475 |3154 |  56 |  2 | 324 | 370 |-1.795842e+06 |-1.795743e+06*|   0.01%|  32.42%
 92.7s|   300 |    25 | 65511 | 204.2 |   343M |  17 |4592 |3611 |3160 | 103 |  8 | 460 | 440 |-1.795840e+06 |-1.795743e+06*|   0.01%|  35.92%
  101s|   400 |    29 | 74047 | 174.5 |   343M |  19 |4592 |3655 |3161 | 140 |  1 | 504 | 480 |-1.795840e+06 |-1.795743e+06*|   0.01%|  36.93%
  106s|   500 |    15 | 81830 | 155.2 |   348M |  19 |4592 |3706 |3154 | 150 |  0 | 555 | 507 |-1.795819e+06 |-1.795743e+06*|   0.00%|  51.46%
  112s|   600 |    17 | 89670 | 142.4 |   351M |  19 |4592 |3729 |3161 | 179 |  2 | 578 | 530 |-1.795801e+06 |-1.795743e+06*|   0.00%|  67.68%

SCIP Status        : problem is solved [optimal solution found]
Solving Time (sec) : 115.25
Solving Nodes      : 683 (total of 684 nodes in 2 runs)
Primal Bound       : -1.79574295000001e+06 (9 solutions)
Dual Bound         : -1.79574295000001e+06
Gap                : 0.00 %
Solve Status: optimal
Solve Time: 115.26 seconds
